D = 2;
n = [ 1 4 ];

N = 8;
d = [ 1 1 1 1 2 2 2 2 ];
m = [
    [ 1.00 0.95 0.35 0.15 0.70 0.95 0.50 0.85 ];
    [ 0.95 1.00 0.65 0.85 0.20 0.55 1.00 0.25 ];
    [ 0.35 0.65 1.00 0.45 0.55 0.00 0.00 0.85 ];
    [ 0.15 0.85 0.45 1.00 0.00 0.75 0.15 0.75 ];
    [ 0.70 0.20 0.55 0.00 1.00 0.70 0.75 0.00 ];
    [ 0.95 0.55 0.00 0.75 0.70 1.00 0.45 0.75 ];
    [ 0.50 1.00 0.00 0.15 0.75 0.45 1.00 0.30 ];
    [ 0.85 0.25 0.85 0.75 0.00 0.75 0.30 1.00 ];
];
